(set-logic NRA)
(declare-fun a () Real)
(declare-fun b () Real)
(assert (exists ((y Real)) (exists ((x Real)) (and (=  (+ (+ (+ (+ (- 9) (* a a)) (* b b)) (* x (+ (* a (- 2)) x))) (* y (+ (* b (- 2)) y))) 0) (or (>= (* b y) 0) (>= (* (+ (* b (- 1)) y) (+ (* x (* b (- 1))) (* y a))) 0)) (or (>= (* (+ (* b (- 1)) y) (+ (+ (+ (* a (- 1)) (* b (- 1))) (* x (+ 1 (* b (- 1))))) (* y (+ 1 a)))) 0) (>= (* (+ (- 1) b) (+ (- 1) y)) 0)) (or (>= (* (- 1) (+ (* x (* b (- 1))) (* y a)) (+ (* a (- 1)) x)) 0) (>= (* a x) 0)) (or (>= (* (- 1) (+ (+ (+ (* a (- 1)) (* b (- 1))) (* x (+ 1 (* b (- 1))))) (* y (+ 1 a))) (+ (* a (- 1)) x)) 0) (>= (* (+ 1 a) (+ 1 x)) 0))))))
(apply qe)
